 
Reading Problem 
Problem Statistics
           0 (      0 spare) rows
           0 (      0 spare) structural columns
           0 (      0 spare) non-zero elements
Global Statistics
           0 entities        0 sets        0 set members
 
Reading Problem 
Problem Statistics
           0 (      0 spare) rows
           0 (      0 spare) structural columns
           0 (      0 spare) non-zero elements
Global Statistics
           0 entities        0 sets        0 set members
FICO Xpress v8.9.0, Hyper, solve started 9:33:22, Jul 24, 2020
Heap usage: 1082KB (peak 1111KB, 1635KB system)
Maximizing MILP 
Original problem has:
      4337 rows          775 cols        12187 elements       279 globals
Presolved problem has:
      1406 rows          388 cols         3762 elements         0 globals
LP relaxation tightened
Presolve finished in 0 seconds
Heap usage: 1242KB (peak 3137KB, 1637KB system)

Coefficient range                    original                 solved        
  Coefficients   [min,max] : [ 4.69e-04,  1.42e+00] / [ 3.58e-03,  1.00e+00]
  RHS and bounds [min,max] : [ 2.01e-02,  4.73e+03] / [ 2.45e-01,  5.10e+03]
  Objective      [min,max] : [ 1.92e+00,  1.92e+00] / [ 1.92e+00,  1.92e+00]
Autoscaling applied standard scaling

Will try to keep branch and bound tree memory usage below 6.0GB
Starting concurrent solve with dual

 Concurrent-Solve,   0s
            Dual        
    objective   sum inf 
 P  110815.69   .0000000
------- optimal --------
Concurrent statistics:
      Dual: 640 simplex iterations, 0.01s
Optimal solution found
 
   Its         Obj Value      S   Ninf  Nneg        Sum Inf  Time
   640       110815.6911      P      0     0        .000000     0
Dual solved problem
  640 simplex iterations in 0s

Final objective                       : 1.108156911270505e+05
  Max primal violation      (abs/rel) :       0.0 /       0.0
  Max dual violation        (abs/rel) :       0.0 /       0.0
  Max complementarity viol. (abs/rel) :       0.0 /       0.0

Starting root cutting & heuristics
 
 Its Type    BestSoln    BestBound   Sols    Add    Del     Gap     GInf   Time
c         110815.6911  110815.6911      1                  0.00%       0      0
 *** Search completed ***
Uncrunching matrix
Final MIP objective                   : 1.108156911270505e+05
Final MIP bound                       : 1.108156911270505e+05
  Solution time / primaldual integral :         0s/ 99.593158%
  Number of solutions found / nodes   :         1 /         1
  Max primal violation      (abs/rel) : 9.095e-13 / 9.095e-13
  Max integer violation     (abs    ) :       0.0
 
Reading Problem 
Problem Statistics
           0 (      0 spare) rows
           0 (      0 spare) structural columns
           0 (      0 spare) non-zero elements
Global Statistics
           0 entities        0 sets        0 set members
 
Reading Problem 
Problem Statistics
           0 (      0 spare) rows
           0 (      0 spare) structural columns
           0 (      0 spare) non-zero elements
Global Statistics
           0 entities        0 sets        0 set members
FICO Xpress v8.9.0, Hyper, solve started 9:36:42, Jul 24, 2020
Heap usage: 1092KB (peak 1121KB, 1635KB system)
Maximizing MILP 
Original problem has:
      4342 rows          930 cols        12322 elements       434 globals
Presolved problem has:
      1406 rows          388 cols         3762 elements         0 globals
LP relaxation tightened
Presolve finished in 0 seconds
Heap usage: 1354KB (peak 3283KB, 1637KB system)

Coefficient range                    original                 solved        
  Coefficients   [min,max] : [ 4.69e-04,  1.42e+00] / [ 3.58e-03,  1.00e+00]
  RHS and bounds [min,max] : [ 2.01e-02,  4.73e+03] / [ 2.45e-01,  5.10e+03]
  Objective      [min,max] : [ 1.92e+00,  1.92e+00] / [ 1.92e+00,  1.92e+00]
Autoscaling applied standard scaling

Will try to keep branch and bound tree memory usage below 6.0GB
Starting concurrent solve with dual

 Concurrent-Solve,   0s
            Dual        
    objective   sum inf 
 P  110815.69   .0000000
------- optimal --------
Concurrent statistics:
      Dual: 640 simplex iterations, 0.01s
Optimal solution found
 
   Its         Obj Value      S   Ninf  Nneg        Sum Inf  Time
   640       110815.6911      P      0     0        .000000     0
Dual solved problem
  640 simplex iterations in 0s

Final objective                       : 1.108156911270505e+05
  Max primal violation      (abs/rel) :       0.0 /       0.0
  Max dual violation        (abs/rel) :       0.0 /       0.0
  Max complementarity viol. (abs/rel) :       0.0 /       0.0

Starting root cutting & heuristics
 
 Its Type    BestSoln    BestBound   Sols    Add    Del     Gap     GInf   Time
c         110815.6911  110815.6911      1                  0.00%       0      0
 *** Search completed ***
Uncrunching matrix
Final MIP objective                   : 1.108156911270505e+05
Final MIP bound                       : 1.108156911270505e+05
  Solution time / primaldual integral :         0s/ 99.743151%
  Number of solutions found / nodes   :         1 /         1
  Max primal violation      (abs/rel) : 9.095e-13 / 9.095e-13
  Max integer violation     (abs    ) :       0.0
